Bulk SiC K-points
Reciprocal
8 8 8
0 0 0