Surface K-points for 2DEG Study
Reciprocal
6 6 1
0 0 0